(set-option :produce-models true)
(set-logic QF_LRA)
(set-info :notes | Strip-packing problem.|)
(declare-fun x0 () Real)
(declare-fun y0 () Real)
(declare-fun x1 () Real)
(declare-fun y1 () Real)
(declare-fun x2 () Real)
(declare-fun y2 () Real)
(declare-fun x3 () Real)
(declare-fun y3 () Real)
(declare-fun x4 () Real)
(declare-fun y4 () Real)
(declare-fun x5 () Real)
(declare-fun y5 () Real)
(declare-fun x6 () Real)
(declare-fun y6 () Real)
(declare-fun x7 () Real)
(declare-fun y7 () Real)
(declare-fun x8 () Real)
(declare-fun y8 () Real)
(declare-fun z () Real)
(declare-fun c () Real)
(assert (and (= c z) (and (>= x0 0) 
(and (>= y0 0) 
(and (>= x1 0) 
(and (>= y1 0) 
(and (>= x2 0) 
(and (>= y2 0) 
(and (>= x3 0) 
(and (>= y3 0) 
(and (>= x4 0) 
(and (>= y4 0) 
(and (>= x5 0) 
(and (>= y5 0) 
(and (>= x6 0) 
(and (>= y6 0) 
(and (>= x7 0) 
(and (>= y7 0) 
(and (>= x8 0) 
(and (>= y8 0) 
(and (>= z 0) 
(and (>= c 0) 
(and (<= (+ x0 0.8332236325) z) 
(and (<= 0.6938580079 y0) 
(and (<= y0 1.5) 
(and (<= x0 (- 2.6385797061 0.8332236325)) 
(and (>= x0 0) 
(and (<= (+ x1 0.532782779) z) 
(and (<= 0.6674801933 y1) 
(and (<= y1 1.5) 
(and (<= x1 (- 2.6385797061 0.532782779)) 
(and (>= x1 0) 
(and (<= (+ x2 0.8145401839) z) 
(and (<= 0.6100714799 y2) 
(and (<= y2 1.5) 
(and (<= x2 (- 2.6385797061 0.8145401839)) 
(and (>= x2 0) 
(and (<= (+ x3 0.6921932453) z) 
(and (<= 0.4220421228 y3) 
(and (<= y3 1.5) 
(and (<= x3 (- 2.6385797061 0.6921932453)) 
(and (>= x3 0) 
(and (<= (+ x4 0.1403863051) z) 
(and (<= 0.3341862644 y4) 
(and (<= y4 1.5) 
(and (<= x4 (- 2.6385797061 0.1403863051)) 
(and (>= x4 0) 
(and (<= (+ x5 0.9908158897) z) 
(and (<= 0.2094523182 y5) 
(and (<= y5 1.5) 
(and (<= x5 (- 2.6385797061 0.9908158897)) 
(and (>= x5 0) 
(and (<= (+ x6 0.1032474038) z) 
(and (<= 0.2075880101 y6) 
(and (<= y6 1.5) 
(and (<= x6 (- 2.6385797061 0.1032474038)) 
(and (>= x6 0) 
(and (<= (+ x7 0.7605706331) z) 
(and (<= 0.2068712123 y7) 
(and (<= y7 1.5) 
(and (<= x7 (- 2.6385797061 0.7605706331)) 
(and (>= x7 0) 
(and (<= (+ x8 0.7343819646) z) 
(and (<= 0.1921039486 y8) 
(and (<= y8 1.5) 
(and (<= x8 (- 2.6385797061 0.7343819646)) 
(and (>= x8 0) 
(and (<= c 2.6385797061) 
(and (or (<= (+ x0 0.8332236325) x1) (or (<= (+ x1 0.532782779) x0) (or (>= (- y0 0.6938580079) y1) (or (>= (- y1 0.6674801933) y0))))) 
(and (or (<= (+ x0 0.8332236325) x2) (or (<= (+ x2 0.8145401839) x0) (or (>= (- y0 0.6938580079) y2) (or (>= (- y2 0.6100714799) y0))))) 
(and (or (<= (+ x0 0.8332236325) x3) (or (<= (+ x3 0.6921932453) x0) (or (>= (- y0 0.6938580079) y3) (or (>= (- y3 0.4220421228) y0))))) 
(and (or (<= (+ x0 0.8332236325) x4) (or (<= (+ x4 0.1403863051) x0) (or (>= (- y0 0.6938580079) y4) (or (>= (- y4 0.3341862644) y0))))) 
(and (or (<= (+ x0 0.8332236325) x5) (or (<= (+ x5 0.9908158897) x0) (or (>= (- y0 0.6938580079) y5) (or (>= (- y5 0.2094523182) y0))))) 
(and (or (<= (+ x0 0.8332236325) x6) (or (<= (+ x6 0.1032474038) x0) (or (>= (- y0 0.6938580079) y6) (or (>= (- y6 0.2075880101) y0))))) 
(and (or (<= (+ x0 0.8332236325) x7) (or (<= (+ x7 0.7605706331) x0) (or (>= (- y0 0.6938580079) y7) (or (>= (- y7 0.2068712123) y0))))) 
(and (or (<= (+ x0 0.8332236325) x8) (or (<= (+ x8 0.7343819646) x0) (or (>= (- y0 0.6938580079) y8) (or (>= (- y8 0.1921039486) y0))))) 
(and (or (<= (+ x1 0.532782779) x2) (or (<= (+ x2 0.8145401839) x1) (or (>= (- y1 0.6674801933) y2) (or (>= (- y2 0.6100714799) y1))))) 
(and (or (<= (+ x1 0.532782779) x3) (or (<= (+ x3 0.6921932453) x1) (or (>= (- y1 0.6674801933) y3) (or (>= (- y3 0.4220421228) y1))))) 
(and (or (<= (+ x1 0.532782779) x4) (or (<= (+ x4 0.1403863051) x1) (or (>= (- y1 0.6674801933) y4) (or (>= (- y4 0.3341862644) y1))))) 
(and (or (<= (+ x1 0.532782779) x5) (or (<= (+ x5 0.9908158897) x1) (or (>= (- y1 0.6674801933) y5) (or (>= (- y5 0.2094523182) y1))))) 
(and (or (<= (+ x1 0.532782779) x6) (or (<= (+ x6 0.1032474038) x1) (or (>= (- y1 0.6674801933) y6) (or (>= (- y6 0.2075880101) y1))))) 
(and (or (<= (+ x1 0.532782779) x7) (or (<= (+ x7 0.7605706331) x1) (or (>= (- y1 0.6674801933) y7) (or (>= (- y7 0.2068712123) y1))))) 
(and (or (<= (+ x1 0.532782779) x8) (or (<= (+ x8 0.7343819646) x1) (or (>= (- y1 0.6674801933) y8) (or (>= (- y8 0.1921039486) y1))))) 
(and (or (<= (+ x2 0.8145401839) x3) (or (<= (+ x3 0.6921932453) x2) (or (>= (- y2 0.6100714799) y3) (or (>= (- y3 0.4220421228) y2))))) 
(and (or (<= (+ x2 0.8145401839) x4) (or (<= (+ x4 0.1403863051) x2) (or (>= (- y2 0.6100714799) y4) (or (>= (- y4 0.3341862644) y2))))) 
(and (or (<= (+ x2 0.8145401839) x5) (or (<= (+ x5 0.9908158897) x2) (or (>= (- y2 0.6100714799) y5) (or (>= (- y5 0.2094523182) y2))))) 
(and (or (<= (+ x2 0.8145401839) x6) (or (<= (+ x6 0.1032474038) x2) (or (>= (- y2 0.6100714799) y6) (or (>= (- y6 0.2075880101) y2))))) 
(and (or (<= (+ x2 0.8145401839) x7) (or (<= (+ x7 0.7605706331) x2) (or (>= (- y2 0.6100714799) y7) (or (>= (- y7 0.2068712123) y2))))) 
(and (or (<= (+ x2 0.8145401839) x8) (or (<= (+ x8 0.7343819646) x2) (or (>= (- y2 0.6100714799) y8) (or (>= (- y8 0.1921039486) y2))))) 
(and (or (<= (+ x3 0.6921932453) x4) (or (<= (+ x4 0.1403863051) x3) (or (>= (- y3 0.4220421228) y4) (or (>= (- y4 0.3341862644) y3))))) 
(and (or (<= (+ x3 0.6921932453) x5) (or (<= (+ x5 0.9908158897) x3) (or (>= (- y3 0.4220421228) y5) (or (>= (- y5 0.2094523182) y3))))) 
(and (or (<= (+ x3 0.6921932453) x6) (or (<= (+ x6 0.1032474038) x3) (or (>= (- y3 0.4220421228) y6) (or (>= (- y6 0.2075880101) y3))))) 
(and (or (<= (+ x3 0.6921932453) x7) (or (<= (+ x7 0.7605706331) x3) (or (>= (- y3 0.4220421228) y7) (or (>= (- y7 0.2068712123) y3))))) 
(and (or (<= (+ x3 0.6921932453) x8) (or (<= (+ x8 0.7343819646) x3) (or (>= (- y3 0.4220421228) y8) (or (>= (- y8 0.1921039486) y3))))) 
(and (or (<= (+ x4 0.1403863051) x5) (or (<= (+ x5 0.9908158897) x4) (or (>= (- y4 0.3341862644) y5) (or (>= (- y5 0.2094523182) y4))))) 
(and (or (<= (+ x4 0.1403863051) x6) (or (<= (+ x6 0.1032474038) x4) (or (>= (- y4 0.3341862644) y6) (or (>= (- y6 0.2075880101) y4))))) 
(and (or (<= (+ x4 0.1403863051) x7) (or (<= (+ x7 0.7605706331) x4) (or (>= (- y4 0.3341862644) y7) (or (>= (- y7 0.2068712123) y4))))) 
(and (or (<= (+ x4 0.1403863051) x8) (or (<= (+ x8 0.7343819646) x4) (or (>= (- y4 0.3341862644) y8) (or (>= (- y8 0.1921039486) y4))))) 
(and (or (<= (+ x5 0.9908158897) x6) (or (<= (+ x6 0.1032474038) x5) (or (>= (- y5 0.2094523182) y6) (or (>= (- y6 0.2075880101) y5))))) 
(and (or (<= (+ x5 0.9908158897) x7) (or (<= (+ x7 0.7605706331) x5) (or (>= (- y5 0.2094523182) y7) (or (>= (- y7 0.2068712123) y5))))) 
(and (or (<= (+ x5 0.9908158897) x8) (or (<= (+ x8 0.7343819646) x5) (or (>= (- y5 0.2094523182) y8) (or (>= (- y8 0.1921039486) y5))))) 
(and (or (<= (+ x6 0.1032474038) x7) (or (<= (+ x7 0.7605706331) x6) (or (>= (- y6 0.2075880101) y7) (or (>= (- y7 0.2068712123) y6))))) 
(and (or (<= (+ x6 0.1032474038) x8) (or (<= (+ x8 0.7343819646) x6) (or (>= (- y6 0.2075880101) y8) (or (>= (- y8 0.1921039486) y6))))) 
(and (or (<= (+ x7 0.7605706331) x8) (or (<= (+ x8 0.7343819646) x7) (or (>= (- y7 0.2068712123) y8) (or (>= (- y8 0.1921039486) y7))))) ))))))))))))))))))))))))))))))))))))))))))))))))))))))))))))))))))))))))))))))))))))))))))))))))))))))))
(minimize c)
(check-sat)
(get-objectives)
(exit)
